c Kneser graph KG(9,3)
c chi=5 by Lovász theorem (9-2*3+2=5), triangle-free
c Hard: high chi relative to clique number
p edge 84 840
e 1 65
e 1 66
e 1 67
e 1 68
e 1 69
e 1 70
e 1 71
e 1 72
e 1 73
e 1 74
e 1 75
e 1 76
e 1 77
e 1 78
e 1 79
e 1 80
e 1 81
e 1 82
e 1 83
e 1 84
e 2 55
e 2 56
e 2 57
e 2 58
e 2 59
e 2 60
e 2 61
e 2 62
e 2 63
e 2 64
e 3 51
e 3 52
e 3 53
e 3 54
e 4 50
e 8 40
e 8 41
e 8 42
e 8 43
e 8 44
e 8 45
e 8 46
e 8 47
e 8 48
e 8 49
e 9 36
e 9 37
e 9 38
e 9 39
e 10 35
e 14 31
e 14 32
e 14 33
e 14 34
e 15 30
e 19 29
e 29 20
e 29 21
e 29 22
e 29 23
e 29 24
e 29 25
e 29 26
e 29 27
e 29 28
e 30 16
e 30 17
e 30 18
e 30 23
e 30 24
e 30 25
e 30 26
e 30 27
e 30 28
e 31 16
e 31 17
e 31 18
e 31 20
e 31 21
e 31 22
e 31 26
e 31 27
e 31 28
e 32 15
e 32 17
e 32 18
e 32 19
e 32 21
e 32 22
e 32 24
e 32 25
e 32 28
e 33 15
e 33 16
e 33 18
e 33 19
e 33 20
e 33 22
e 33 23
e 33 25
e 33 27
e 34 15
e 34 16
e 34 17
e 34 19
e 34 20
e 34 21
e 34 23
e 34 24
e 34 26
e 35 11
e 35 12
e 35 13
e 35 23
e 35 24
e 35 25
e 35 26
e 35 27
e 35 28
e 36 11
e 36 12
e 36 13
e 36 20
e 36 21
e 36 22
e 36 26
e 36 27
e 36 28
e 37 10
e 37 12
e 37 13
e 37 19
e 37 21
e 37 22
e 37 24
e 37 25
e 37 28
e 38 10
e 38 11
e 38 13
e 38 19
e 38 20
e 38 22
e 38 23
e 38 25
e 38 27
e 39 10
e 39 11
e 39 12
e 39 19
e 39 20
e 39 21
e 39 23
e 39 24
e 39 26
e 40 11
e 40 12
e 40 13
e 40 16
e 40 17
e 40 18
e 40 26
e 40 27
e 40 28
e 41 10
e 41 12
e 41 13
e 41 15
e 41 17
e 41 18
e 41 24
e 41 25
e 41 28
e 42 10
e 42 11
e 42 13
e 42 15
e 42 16
e 42 18
e 42 23
e 42 25
e 42 27
e 43 10
e 43 11
e 43 12
e 43 15
e 43 16
e 43 17
e 43 23
e 43 24
e 43 26
e 44 9
e 44 12
e 44 13
e 44 14
e 44 17
e 44 18
e 44 21
e 44 22
e 44 28
e 45 9
e 45 11
e 45 13
e 45 14
e 45 16
e 45 18
e 45 20
e 45 22
e 45 27
e 46 9
e 46 11
e 46 12
e 46 14
e 46 16
e 46 17
e 46 20
e 46 21
e 46 26
e 47 9
e 47 10
e 47 13
e 47 14
e 47 15
e 47 18
e 47 19
e 47 22
e 47 25
e 48 9
e 48 10
e 48 12
e 48 14
e 48 15
e 48 17
e 48 19
e 48 21
e 48 24
e 49 9
e 49 10
e 49 11
e 49 14
e 49 15
e 49 16
e 49 19
e 49 20
e 49 23
e 50 5
e 50 6
e 50 7
e 50 23
e 50 24
e 50 25
e 50 26
e 50 27
e 50 28
e 50 44
e 50 45
e 50 46
e 50 47
e 50 48
e 50 49
e 51 5
e 51 6
e 51 7
e 51 20
e 51 21
e 51 22
e 51 26
e 51 27
e 51 28
e 51 41
e 51 42
e 51 43
e 51 47
e 51 48
e 51 49
e 52 4
e 52 6
e 52 7
e 52 19
e 52 21
e 52 22
e 52 24
e 52 25
e 52 28
e 52 40
e 52 42
e 52 43
e 52 45
e 52 46
e 52 49
e 53 4
e 53 5
e 53 7
e 53 19
e 53 20
e 53 22
e 53 23
e 53 25
e 53 27
e 53 40
e 53 41
e 53 43
e 53 44
e 53 46
e 53 48
e 54 4
e 54 5
e 54 6
e 54 19
e 54 20
e 54 21
e 54 23
e 54 24
e 54 26
e 54 40
e 54 41
e 54 42
e 54 44
e 54 45
e 54 47
e 55 5
e 55 6
e 55 7
e 55 16
e 55 17
e 55 18
e 55 26
e 55 27
e 55 28
e 55 37
e 55 38
e 55 39
e 55 47
e 55 48
e 55 49
e 56 4
e 56 6
e 56 7
e 56 15
e 56 17
e 56 18
e 56 24
e 56 25
e 56 28
e 56 36
e 56 38
e 56 39
e 56 45
e 56 46
e 56 49
e 57 4
e 57 5
e 57 7
e 57 15
e 57 16
e 57 18
e 57 23
e 57 25
e 57 27
e 57 36
e 57 37
e 57 39
e 57 44
e 57 46
e 57 48
e 58 4
e 58 5
e 58 6
e 58 15
e 58 16
e 58 17
e 58 23
e 58 24
e 58 26
e 58 36
e 58 37
e 58 38
e 58 44
e 58 45
e 58 47
e 59 3
e 59 6
e 59 7
e 59 14
e 59 17
e 59 18
e 59 21
e 59 22
e 59 28
e 59 35
e 59 38
e 59 39
e 59 42
e 59 43
e 59 49
e 60 3
e 60 5
e 60 7
e 60 14
e 60 16
e 60 18
e 60 20
e 60 22
e 60 27
e 60 35
e 60 37
e 60 39
e 60 41
e 60 43
e 60 48
e 61 3
e 61 5
e 61 6
e 61 14
e 61 16
e 61 17
e 61 20
e 61 21
e 61 26
e 61 35
e 61 37
e 61 38
e 61 41
e 61 42
e 61 47
e 62 3
e 62 4
e 62 7
e 62 14
e 62 15
e 62 18
e 62 19
e 62 22
e 62 25
e 62 35
e 62 36
e 62 39
e 62 40
e 62 43
e 62 46
e 63 3
e 63 4
e 63 6
e 63 14
e 63 15
e 63 17
e 63 19
e 63 21
e 63 24
e 63 35
e 63 36
e 63 38
e 63 40
e 63 42
e 63 45
e 64 3
e 64 4
e 64 5
e 64 14
e 64 15
e 64 16
e 64 19
e 64 20
e 64 23
e 64 35
e 64 36
e 64 37
e 64 40
e 64 41
e 64 44
e 65 5
e 65 6
e 65 7
e 65 11
e 65 12
e 65 13
e 65 26
e 65 27
e 65 28
e 65 32
e 65 33
e 65 34
e 65 47
e 65 48
e 65 49
e 65 62
e 65 63
e 65 64
e 65 84
e 66 4
e 66 6
e 66 7
e 66 10
e 66 12
e 66 13
e 66 24
e 66 25
e 66 28
e 66 31
e 66 33
e 66 34
e 66 45
e 66 46
e 66 49
e 66 60
e 66 61
e 66 64
e 66 83
e 67 4
e 67 5
e 67 7
e 67 10
e 67 11
e 67 13
e 67 23
e 67 25
e 67 27
e 67 31
e 67 32
e 67 34
e 67 44
e 67 46
e 67 48
e 67 59
e 67 61
e 67 63
e 67 82
e 68 4
e 68 5
e 68 6
e 68 10
e 68 11
e 68 12
e 68 23
e 68 24
e 68 26
e 68 31
e 68 32
e 68 33
e 68 44
e 68 45
e 68 47
e 68 59
e 68 60
e 68 62
e 68 81
e 69 3
e 69 6
e 69 7
e 69 9
e 69 12
e 69 13
e 69 21
e 69 22
e 69 28
e 69 30
e 69 33
e 69 34
e 69 42
e 69 43
e 69 49
e 69 57
e 69 58
e 69 64
e 69 80
e 70 3
e 70 5
e 70 7
e 70 9
e 70 11
e 70 13
e 70 20
e 70 22
e 70 27
e 70 30
e 70 32
e 70 34
e 70 41
e 70 43
e 70 48
e 70 56
e 70 58
e 70 63
e 70 79
e 71 3
e 71 5
e 71 6
e 71 9
e 71 11
e 71 12
e 71 20
e 71 21
e 71 26
e 71 30
e 71 32
e 71 33
e 71 41
e 71 42
e 71 47
e 71 56
e 71 57
e 71 62
e 71 78
e 72 3
e 72 4
e 72 7
e 72 9
e 72 10
e 72 13
e 72 19
e 72 22
e 72 25
e 72 30
e 72 31
e 72 34
e 72 40
e 72 43
e 72 46
e 72 55
e 72 58
e 72 61
e 72 77
e 73 3
e 73 4
e 73 6
e 73 9
e 73 10
e 73 12
e 73 19
e 73 21
e 73 24
e 73 30
e 73 31
e 73 33
e 73 40
e 73 42
e 73 45
e 73 55
e 73 57
e 73 60
e 73 76
e 74 3
e 74 4
e 74 5
e 74 9
e 74 10
e 74 11
e 74 19
e 74 20
e 74 23
e 74 30
e 74 31
e 74 32
e 74 40
e 74 41
e 74 44
e 74 55
e 74 56
e 74 59
e 74 75
e 75 2
e 75 6
e 75 7
e 75 8
e 75 12
e 75 13
e 75 17
e 75 18
e 75 28
e 75 29
e 75 33
e 75 34
e 75 38
e 75 39
e 75 49
e 75 53
e 75 54
e 75 64
e 76 2
e 76 5
e 76 7
e 76 8
e 76 11
e 76 13
e 76 16
e 76 18
e 76 27
e 76 29
e 76 32
e 76 34
e 76 37
e 76 39
e 76 48
e 76 52
e 76 54
e 76 63
e 77 2
e 77 5
e 77 6
e 77 8
e 77 11
e 77 12
e 77 16
e 77 17
e 77 26
e 77 29
e 77 32
e 77 33
e 77 37
e 77 38
e 77 47
e 77 52
e 77 53
e 77 62
e 78 2
e 78 4
e 78 7
e 78 8
e 78 10
e 78 13
e 78 15
e 78 18
e 78 25
e 78 29
e 78 31
e 78 34
e 78 36
e 78 39
e 78 46
e 78 51
e 78 54
e 78 61
e 79 2
e 79 4
e 79 6
e 79 8
e 79 10
e 79 12
e 79 15
e 79 17
e 79 24
e 79 29
e 79 31
e 79 33
e 79 36
e 79 38
e 79 45
e 79 51
e 79 53
e 79 60
e 80 2
e 80 4
e 80 5
e 80 8
e 80 10
e 80 11
e 80 15
e 80 16
e 80 23
e 80 29
e 80 31
e 80 32
e 80 36
e 80 37
e 80 44
e 80 51
e 80 52
e 80 59
e 81 2
e 81 3
e 81 7
e 81 8
e 81 9
e 81 13
e 81 14
e 81 18
e 81 22
e 81 29
e 81 30
e 81 34
e 81 35
e 81 39
e 81 43
e 81 50
e 81 54
e 81 58
e 82 2
e 82 3
e 82 6
e 82 8
e 82 9
e 82 12
e 82 14
e 82 17
e 82 21
e 82 29
e 82 30
e 82 33
e 82 35
e 82 38
e 82 42
e 82 50
e 82 53
e 82 57
e 83 2
e 83 3
e 83 5
e 83 8
e 83 9
e 83 11
e 83 14
e 83 16
e 83 20
e 83 29
e 83 30
e 83 32
e 83 35
e 83 37
e 83 41
e 83 50
e 83 52
e 83 56
e 84 2
e 84 3
e 84 4
e 84 8
e 84 9
e 84 10
e 84 14
e 84 15
e 84 19
e 84 29
e 84 30
e 84 31
e 84 35
e 84 36
e 84 40
e 84 50
e 84 51
e 84 55
